Value of objective function: 87.00000000

Actual values of the variables:
m11                             3
m10                             4
m7                              2
y11_6                           0
y11_7                           0
y11_9                           3
y10_5                           0
y10_6                           4
y10_8                           0
y9_7                            0
y7_5                            2
y7_4                            0
y8_6                            0
y6_4                            4
y5_3                            0
y4_2                            2
y3_2                            0
y8_5                            0
y9_5                            3
y8_4                            0
y5_4                            0
y6_5                            0
